(set-info :smt-lib-version 2.6)
(set-info :category "crafted")
(set-logic QF_FFA)
(define-sort FF0 () (_ FiniteField 52435875175126190479447740508185965837690552500527637822603658699938581184513))
(declare-fun x7 () Bool)
(declare-fun x6 () Bool)
(declare-fun x5 () Bool)
(declare-fun x4 () Bool)
(declare-fun x3 () Bool)
(declare-fun x2 () Bool)
(declare-fun x1 () Bool)
(declare-fun x0 () Bool)
(declare-fun return_n7 () FF0)
(declare-fun x7_n3 () FF0)
(declare-fun mul_n14 () FF0)
(declare-fun x6_n5 () FF0)
(declare-fun mul_n13 () FF0)
(declare-fun x5_n0 () FF0)
(declare-fun mul_n12 () FF0)
(declare-fun mul_n11 () FF0)
(declare-fun x3_n6 () FF0)
(declare-fun mul_n10 () FF0)
(declare-fun x2_n8 () FF0)
(declare-fun mul_n9 () FF0)
(declare-fun x1_n2 () FF0)
(declare-fun x0_n4 () FF0)
(declare-fun x4_n1 () FF0)
(assert 
  (let ((let0 x7))
  (let ((let1 x6))
  (let ((let2 x5))
  (let ((let3 x4))
  (let ((let4 x3))
  (let ((let5 x2))
  (let ((let6 x1))
  (let ((let7 x0))
  (let ((let8 (or let7 let6 let5 let4 let3 let2 let1 let0)))
  (let ((let9 return_n7))
  (let ((let10 (as ff1 FF0)))
  (let ((let11 (= let10 let9)))
  (let ((let12 (= let11 let8)))
  (let ((let13 (as ff0 FF0)))
  (let ((let14 (= let13 let9)))
  (let ((let15 (or let11 let14)))
  (let ((let16 (and let15 let12)))
  (let ((let17 (as ff52435875175126190479447740508185965837690552500527637822603658699938581184512 FF0)))
  (let ((let18 (ff.mul let9 let17)))
  (let ((let19 (ff.add let18 let10)))
  (let ((let20 x7_n3))
  (let ((let21 (ff.mul let20 let17)))
  (let ((let22 (ff.add let21 let10)))
  (let ((let23 mul_n14))
  (let ((let24 (ff.mul let23 let22)))
  (let ((let25 (= let24 let19)))
  (let ((let26 x6_n5))
  (let ((let27 (ff.mul let26 let17)))
  (let ((let28 (ff.add let27 let10)))
  (let ((let29 mul_n13))
  (let ((let30 (ff.mul let29 let28)))
  (let ((let31 (= let30 let23)))
  (let ((let32 x5_n0))
  (let ((let33 (ff.mul let32 let17)))
  (let ((let34 (ff.add let33 let10)))
  (let ((let35 mul_n12))
  (let ((let36 (ff.mul let35 let34)))
  (let ((let37 (= let36 let29)))
  (let ((let38 mul_n11))
  (let ((let39 x3_n6))
  (let ((let40 (ff.mul let39 let17)))
  (let ((let41 (ff.add let40 let10)))
  (let ((let42 mul_n10))
  (let ((let43 (ff.mul let42 let41)))
  (let ((let44 (= let43 let38)))
  (let ((let45 x2_n8))
  (let ((let46 (ff.mul let45 let17)))
  (let ((let47 (ff.add let46 let10)))
  (let ((let48 mul_n9))
  (let ((let49 (ff.mul let48 let47)))
  (let ((let50 (= let49 let42)))
  (let ((let51 x1_n2))
  (let ((let52 (ff.mul let51 let17)))
  (let ((let53 (ff.add let52 let10)))
  (let ((let54 x0_n4))
  (let ((let55 (ff.mul let54 let17)))
  (let ((let56 (ff.add let55 let10)))
  (let ((let57 (ff.mul let56 let53)))
  (let ((let58 (= let57 let48)))
  (let ((let59 (and let58 let50 let44 let37 let31 let25)))
  (let ((let60 (ite let3 let10 let13)))
  (let ((let61 x4_n1))
  (let ((let62 (= let61 let60)))
  (let ((let63 (ite let5 let10 let13)))
  (let ((let64 (= let45 let63)))
  (let ((let65 (ite let4 let10 let13)))
  (let ((let66 (= let39 let65)))
  (let ((let67 (ite let1 let10 let13)))
  (let ((let68 (= let26 let67)))
  (let ((let69 (ite let7 let10 let13)))
  (let ((let70 (= let54 let69)))
  (let ((let71 (ite let2 let10 let13)))
  (let ((let72 (= let32 let71)))
  (let ((let73 (ite let0 let10 let13)))
  (let ((let74 (= let20 let73)))
  (let ((let75 (ite let6 let10 let13)))
  (let ((let76 (= let51 let75)))
  (let ((let77 (and let76 let74 let72 let70 let68 let66 let64 let62)))
  (let ((let78 (and let77 let59)))
  (let ((let79 (=> let78 let16)))
  (let ((let80 (not let79)))
  let80
)))))))))))))))))))))))))))))))))))))))))))))))))))))))))))))))))))))))))))))))))
)
(check-sat)
